\ Model Escenario_lluvia_alta_copy
\ LP format - for model browsing. Use MPS format to capture full model detail.
Minimize
 
Subject To
 R14349: - H[0,13] + H[0,14] + 777600 Q[14] - 7.776e+06 S[14]
   = 3.89763e+06
 R14708: - H[1,7] + H[1,8] + 777600 Q[8] - 7.776e+06 S[8] = 3.90726e+06
 R14716: - H[1,15] + H[1,16] + 777600 Q[16] - 7.776e+06 S[16]
   = 3.89763e+06
 R14724: - H[1,23] + H[1,24] + 777600 Q[24] - 7.776e+06 S[24]
   = 3.90726e+06
 R14726: - H[1,25] + H[1,26] + 777600 Q[26] - 7.776e+06 S[26]
   = 3.90084e+06
 R14731: - H[1,30] + H[1,31] + 777600 Q[31] - 7.776e+06 S[31]
   = 3.90084e+06
 R15072: - H[2,6] + H[2,7] + 777600 Q[7] - 7.776e+06 S[7] = 3.91368e+06
 R15452: - H[3,21] + H[3,22] + 777600 Q[22] - 7.776e+06 S[22]
   = 3.90726e+06
 R15795: H[4,0] + 777600 Q[0] - 7.776e+06 S[0] = 3.91368e+06
 R15796: - H[4,0] + H[4,1] + 777600 Q[1] - 7.776e+06 S[1] = 3.90084e+06
 R15797: - H[4,1] + H[4,2] + 777600 Q[2] - 7.776e+06 S[2] = 3.90084e+06
 R15798: - H[4,2] + H[4,3] + 777600 Q[3] - 7.776e+06 S[3] = 3.90084e+06
 R15799: - H[4,3] + H[4,4] + 777600 Q[4] - 7.776e+06 S[4] = 3.94257e+06
 R15800: - H[4,4] + H[4,5] + 777600 Q[5] - 7.776e+06 S[5] = 3.91689e+06
 R15801: - H[4,5] + H[4,6] + 777600 Q[6] - 7.776e+06 S[6] = 3.89763e+06
 R15802: - H[4,6] + H[4,7] + 777600 Q[7] - 7.776e+06 S[7] = 3.91368e+06
 R15803: - H[4,7] + H[4,8] + 777600 Q[8] - 7.776e+06 S[8] = 3.90726e+06
 R15804: - H[4,8] + H[4,9] + 777600 Q[9] - 7.776e+06 S[9] = 3.888e+06
 R15805: - H[4,9] + H[4,10] + 777600 Q[10] - 7.776e+06 S[10] = 3.89442e+06
 R15806: - H[4,10] + H[4,11] + 777600 Q[11] - 7.776e+06 S[11]
   = 3.91047e+06
 R15807: - H[4,11] + H[4,12] + 777600 Q[12] - 7.776e+06 S[12]
   = 3.93615e+06
 R15808: - H[4,12] + H[4,13] + 777600 Q[13] - 7.776e+06 S[13]
   = 3.90084e+06
 R15809: - H[4,13] + H[4,14] + 777600 Q[14] - 7.776e+06 S[14]
   = 3.89763e+06
 R15810: - H[4,14] + H[4,15] + 777600 Q[15] - 7.776e+06 S[15]
   = 3.90726e+06
 R15811: - H[4,15] + H[4,16] + 777600 Q[16] - 7.776e+06 S[16]
   = 3.89763e+06
 R15812: - H[4,16] + H[4,17] + 777600 Q[17] - 7.776e+06 S[17]
   = 3.90084e+06
 R15813: - H[4,17] + H[4,18] + 777600 Q[18] - 7.776e+06 S[18]
   = 3.90405e+06
 R15814: - H[4,18] + H[4,19] + 777600 Q[19] - 7.776e+06 S[19]
   = 3.89442e+06
 R15815: - H[4,19] + H[4,20] + 777600 Q[20] - 7.776e+06 S[20] = 3.9201e+06
 R15816: - H[4,20] + H[4,21] + 777600 Q[21] - 7.776e+06 S[21]
   = 3.89121e+06
 R15817: - H[4,21] + H[4,22] + 777600 Q[22] - 7.776e+06 S[22]
   = 3.90726e+06
 R15818: - H[4,22] + H[4,23] + 777600 Q[23] - 7.776e+06 S[23]
   = 3.91689e+06
 R15819: - H[4,23] + H[4,24] + 777600 Q[24] - 7.776e+06 S[24]
   = 3.90726e+06
 R15820: - H[4,24] + H[4,25] + 777600 Q[25] - 7.776e+06 S[25]
   = 3.90084e+06
 R15821: - H[4,25] + H[4,26] + 777600 Q[26] - 7.776e+06 S[26]
   = 3.90084e+06
 R15822: - H[4,26] + H[4,27] + 777600 Q[27] - 7.776e+06 S[27]
   = 3.89763e+06
 R15823: - H[4,27] + H[4,28] + 777600 Q[28] - 7.776e+06 S[28]
   = 3.92652e+06
 R15824: - H[4,28] + H[4,29] + 777600 Q[29] - 7.776e+06 S[29]
   = 3.91047e+06
 R15825: - H[4,29] + H[4,30] + 777600 Q[30] - 7.776e+06 S[30]
   = 3.89763e+06
 R15826: - H[4,30] + H[4,31] + 777600 Q[31] - 7.776e+06 S[31]
   = 3.90084e+06
 R16187: H[0,13] - 1e+10 Q[13] >= -9.8749999999999008e+09
 R16188: H[0,14] - 1e+10 Q[14] <= 1.25e+08
 R16212: H[0,26] - 1e+10 Q[26] <= 1.25e+08
 R16905: H[1,7] - 1e+10 Q[7] >= -9.8749999999999008e+09
 R16906: H[1,8] - 1e+10 Q[8] <= 1.25e+08
 R16921: H[1,15] - 1e+10 Q[15] >= -9.8749999999999008e+09
 R16922: H[1,16] - 1e+10 Q[16] <= 1.25e+08
 R16941: H[1,25] - 1e+10 Q[25] >= -9.8749999999999008e+09
 R16942: H[1,26] - 1e+10 Q[26] <= 1.25e+08
 R16951: H[1,30] - 1e+10 Q[30] >= -9.8749999999999008e+09
 R16952: H[1,31] - 1e+10 Q[31] <= 1.25e+08
 R17633: H[2,6] - 1e+10 Q[6] >= -9.8749999999999008e+09
 R17634: H[2,7] - 1e+10 Q[7] <= 1.25e+08
 R19081: H[4,0] - 1e+10 Q[0] >= -9.8749999999999008e+09
 R19083: H[4,1] - 1e+10 Q[1] >= -9.8749999999999008e+09
 R19085: H[4,2] - 1e+10 Q[2] >= -9.8749999999999008e+09
 R19087: H[4,3] - 1e+10 Q[3] >= -9.8749999999999008e+09
 R19089: H[4,4] - 1e+10 Q[4] >= -9.8749999999999008e+09
 R19091: H[4,5] - 1e+10 Q[5] >= -9.8749999999999008e+09
 R19097: H[4,8] - 1e+10 Q[8] >= -9.8749999999999008e+09
 R19099: H[4,9] - 1e+10 Q[9] >= -9.8749999999999008e+09
 R19101: H[4,10] - 1e+10 Q[10] >= -9.8749999999999008e+09
 R19103: H[4,11] - 1e+10 Q[11] >= -9.8749999999999008e+09
 R19105: H[4,12] - 1e+10 Q[12] >= -9.8749999999999008e+09
 R19109: H[4,14] - 1e+10 Q[14] >= -9.8749999999999008e+09
 R19112: H[4,16] - 1e+10 Q[16] <= 1.25e+08
 R19113: H[4,16] - 1e+10 Q[16] >= -9.8749999999999008e+09
 R19114: H[4,17] - 1e+10 Q[17] <= 1.25e+08
 R19115: H[4,17] - 1e+10 Q[17] >= -9.8749999999999008e+09
 R19117: H[4,18] - 1e+10 Q[18] >= -9.8749999999999008e+09
 R19119: H[4,19] - 1e+10 Q[19] >= -9.8749999999999008e+09
 R19121: H[4,20] - 1e+10 Q[20] >= -9.8749999999999008e+09
 R19123: H[4,21] - 1e+10 Q[21] >= -9.8749999999999008e+09
 R19125: H[4,22] - 1e+10 Q[22] >= -9.8749999999999008e+09
 R19127: H[4,23] - 1e+10 Q[23] >= -9.8749999999999008e+09
 R19129: H[4,24] - 1e+10 Q[24] >= -9.8749999999999008e+09
 R19130: H[4,25] - 1e+10 Q[25] <= 1.25e+08
 R19133: H[4,26] - 1e+10 Q[26] >= -9.8749999999999008e+09
 R19135: H[4,27] - 1e+10 Q[27] >= -9.8749999999999008e+09
 R19137: H[4,28] - 1e+10 Q[28] >= -9.8749999999999008e+09
 R19138: H[4,29] - 1e+10 Q[29] <= 1.25e+08
 R19139: H[4,29] - 1e+10 Q[29] >= -9.8749999999999008e+09
 R19140: H[4,30] - 1e+10 Q[30] <= 1.25e+08
 R19142: H[4,31] - 1e+10 Q[31] <= 1.25e+08
 R19143: H[4,31] - 1e+10 Q[31] >= -9.8749999999999008e+09
 R19810: - 777600 Q[0] + 7.776e+06 S[0] + A[0] = 0
 R19811: - 777600 Q[1] + 7.776e+06 S[1] - A[0] + A[1] = 0
 R19812: - 777600 Q[2] + 7.776e+06 S[2] - A[1] + A[2] = 0
 R19813: - 777600 Q[3] + 7.776e+06 S[3] - A[2] + A[3] = 0
 R19815: - 777600 Q[5] + 7.776e+06 S[5] - A[4] + A[5] = 0
 R19816: - 777600 Q[6] + 7.776e+06 S[6] - A[5] + A[6] = 0
 R19817: - 777600 Q[7] + 7.776e+06 S[7] - A[6] + A[7] = 0
 R19818: - 777600 Q[8] + 7.776e+06 S[8] - A[7] + A[8] = 0
 R19819: - 777600 Q[9] + 7.776e+06 S[9] - A[8] + A[9] = 0
 R19820: - 777600 Q[10] + 7.776e+06 S[10] - A[9] + A[10] = 0
 R19821: - 777600 Q[11] + 7.776e+06 S[11] - A[10] + A[11] = 0
 R19822: - 777600 Q[12] + 7.776e+06 S[12] - A[11] + A[12] = 0
 R19823: - 777600 Q[13] + 7.776e+06 S[13] - A[12] + A[13] = 0
 R19824: - 777600 Q[14] + 7.776e+06 S[14] - A[13] + A[14] = 0
 R19825: - 777600 Q[15] + 7.776e+06 S[15] - A[14] + A[15] = 0
 R19826: - 777600 Q[16] + 7.776e+06 S[16] - A[15] + A[16] = 0
 R19827: - 777600 Q[17] + 7.776e+06 S[17] - A[16] + A[17] = 0
 R19828: - 777600 Q[18] + 7.776e+06 S[18] - A[17] + A[18] = 0
 R19829: - 777600 Q[19] + 7.776e+06 S[19] - A[18] + A[19] = 0
 R19830: - 777600 Q[20] + 7.776e+06 S[20] - A[19] + A[20] = 0
 R19831: - 777600 Q[21] + 7.776e+06 S[21] - A[20] + A[21] = 0
 R19833: - 777600 Q[23] + 7.776e+06 S[23] - A[22] + A[23] = 0
 R19834: - 777600 Q[24] + 7.776e+06 S[24] - A[23] + A[24] = 0
 R19835: - 777600 Q[25] + 7.776e+06 S[25] - A[24] + A[25] = 0
 R19837: - 777600 Q[27] + 7.776e+06 S[27] - A[26] + A[27] = 0
 R19838: - 777600 Q[28] + 7.776e+06 S[28] - A[27] + A[28] = 0
 R19839: - 777600 Q[29] + 7.776e+06 S[29] - A[28] + A[29] = 0
 R19840: - 777600 Q[30] + 7.776e+06 S[30] - A[29] + A[30] = 0
 R19841: - 777600 Q[31] + 7.776e+06 S[31] - A[30] + A[31] = 0
 R20188: - 1e+10 S[4] + A[4] >= -9.5499999999999008e+09
 R20191: - 1e+10 S[5] + A[5] >= -9.5499999999999008e+09
 R20193: - 1e+10 S[6] + A[6] <= 4.5e+08
 R20194: - 1e+10 S[6] + A[6] >= -9.5499999999999008e+09
 R20196: - 1e+10 S[7] + A[7] <= 4.5e+08
 R20197: - 1e+10 S[7] + A[7] >= -9.5499999999999008e+09
 R20199: - 1e+10 S[8] + A[8] <= 4.5e+08
 R20200: - 1e+10 S[8] + A[8] >= -9.5499999999999008e+09
 R20203: - 1e+10 S[9] + A[9] >= -9.5499999999999008e+09
 R20205: - 1e+10 S[10] + A[10] <= 4.5e+08
 R20206: - 1e+10 S[10] + A[10] >= -9.5499999999999008e+09
 R20209: - 1e+10 S[11] + A[11] >= -9.5499999999999008e+09
 R20211: - 1e+10 S[12] + A[12] <= 4.5e+08
 R20212: - 1e+10 S[12] + A[12] >= -9.5499999999999008e+09
 R20215: - 1e+10 S[13] + A[13] >= -9.5499999999999008e+09
 R20217: - 1e+10 S[14] + A[14] <= 4.5e+08
 R20218: - 1e+10 S[14] + A[14] >= -9.5499999999999008e+09
 R20220: - 1e+10 S[15] + A[15] <= 4.5e+08
 R20221: - 1e+10 S[15] + A[15] >= -9.5499999999999008e+09
 R20223: - 1e+10 S[16] + A[16] <= 4.5e+08
 R20224: - 1e+10 S[16] + A[16] >= -9.5499999999999008e+09
 R20225: Q[16] + S[16] <= 1
 R20227: - 1e+10 S[17] + A[17] >= -9.5499999999999008e+09
 R20230: - 1e+10 S[18] + A[18] >= -9.5499999999999008e+09
 R20233: - 1e+10 S[19] + A[19] >= -9.5499999999999008e+09
 R20236: - 1e+10 S[20] + A[20] >= -9.5499999999999008e+09
 R20239: - 1e+10 S[21] + A[21] >= -9.5499999999999008e+09
 R20241: - 1e+10 S[22] + A[22] <= 4.5e+08
 R20242: - 1e+10 S[22] + A[22] >= -9.5499999999999008e+09
 R20244: - 1e+10 S[23] + A[23] <= 4.5e+08
 R20245: - 1e+10 S[23] + A[23] >= -9.5499999999999008e+09
 R20247: - 1e+10 S[24] + A[24] <= 4.5e+08
 R20248: - 1e+10 S[24] + A[24] >= -9.5499999999999008e+09
 R20250: - 1e+10 S[25] + A[25] <= 4.5e+08
 R20251: - 1e+10 S[25] + A[25] >= -9.5499999999999008e+09
 R20252: Q[25] + S[25] <= 1
 R20253: - 1e+10 S[26] + A[26] <= 4.5e+08
 R20254: - 1e+10 S[26] + A[26] >= -9.5499999999999008e+09
 R20257: - 1e+10 S[27] + A[27] >= -9.5499999999999008e+09
 R20260: - 1e+10 S[28] + A[28] >= -9.5499999999999008e+09
 R20262: - 1e+10 S[29] + A[29] <= 4.5e+08
 R20263: - 1e+10 S[29] + A[29] >= -9.5499999999999008e+09
 R20264: Q[29] + S[29] <= 1
 R20266: - 1e+10 S[30] + A[30] >= -9.5499999999999008e+09
 R20268: - 1e+10 S[31] + A[31] <= 4.5e+08
 R20269: - 1e+10 S[31] + A[31] >= -9.5499999999999008e+09
Bounds
 H[0,13] free
 H[0,14] free
 H[0,26] free
 H[1,7] free
 H[1,8] free
 H[1,15] free
 H[1,16] free
 H[1,23] free
 H[1,24] free
 H[1,25] free
 H[1,26] free
 H[1,30] free
 H[1,31] free
 H[2,6] free
 H[2,7] free
 H[3,21] free
 H[3,22] free
 H[4,0] free
 H[4,1] free
 H[4,2] free
 H[4,3] free
 H[4,4] free
 H[4,5] free
 H[4,6] free
 H[4,7] free
 H[4,8] free
 H[4,9] free
 H[4,10] free
 H[4,11] free
 H[4,12] free
 H[4,13] free
 H[4,14] free
 H[4,15] free
 H[4,16] free
 H[4,17] free
 H[4,18] free
 H[4,19] free
 H[4,20] free
 H[4,21] free
 H[4,22] free
 H[4,23] free
 H[4,24] free
 H[4,25] free
 H[4,26] free
 H[4,27] free
 H[4,28] free
 H[4,29] free
 H[4,30] free
 H[4,31] free
 A[0] free
 A[1] free
 A[2] free
 A[4] free
 A[5] free
 A[6] free
 A[7] free
 A[8] free
 A[9] free
 A[10] free
 A[11] free
 A[13] free
 A[17] free
 A[20] free
 A[21] free
 A[22] free
 A[23] free
 A[25] free
 A[26] free
 A[27] free
 A[28] free
 A[30] free
Binaries
 Q[0] Q[1] Q[2] Q[3] Q[4] Q[5] Q[6] Q[7] Q[8] Q[9] Q[10] Q[11] Q[12] Q[13]
 Q[14] Q[15] Q[16] Q[17] Q[18] Q[19] Q[20] Q[21] Q[22] Q[23] Q[24] Q[25]
 Q[26] Q[27] Q[28] Q[29] Q[30] Q[31] S[0] S[1] S[2] S[3] S[4] S[5] S[6]
 S[7] S[8] S[9] S[10] S[11] S[12] S[13] S[14] S[15] S[16] S[17] S[18] S[19]
 S[20] S[21] S[22] S[23] S[24] S[25] S[26] S[27] S[28] S[29] S[30] S[31]
End
